%nproc=8
%mem=2000mb
# m06/6-311+G(2df,2p) TD pop=Hirshfeld  scf=tight integral=ultrafine density=current                 

Formaldehyde: 1st excited state 

           0           1
  8       0.000000000     0.000000000     0.669965000
  6       0.000000000     0.000000000    -0.521138000
  1       0.000000000     0.937548000    -1.116446000
  1       0.000000000    -0.937548000    -1.116446000

