AutoCreatByScript: H C                  
   1.00000000000000     
    11.0000000000000000    0.0000000000000000    0.0000000000000000
     0.0000000000000000   12.0000000000000000    0.0000000000000000
     0.0000000000000000    0.0000000000000000   13.0000000000000000
   H    C 
     4     1
Selective dynamics
Direct
  0.5037395552514038  0.4393024260704870  0.4918717486138178   T   T   T
  0.3707707181026683  0.4823995602087877  0.5607657033917747   T   T   T
  0.5037322034577855  0.5685848239504790  0.5607654798427113   T   T   T
  0.5037376897851452  0.4393100798484151  0.6296642104668878   T   T   T
  0.4704885288589941  0.4823995467398318  0.5607663860158062   T   T   T
 
  0.00000000E+00  0.00000000E+00  0.00000000E+00
  0.00000000E+00  0.00000000E+00  0.00000000E+00
  0.00000000E+00  0.00000000E+00  0.00000000E+00
  0.00000000E+00  0.00000000E+00  0.00000000E+00
  0.00000000E+00  0.00000000E+00  0.00000000E+00
